Prototype/modified-results/vertexcover2-2/vertexcover2019.dat-s
"Vertexcover tests with graphs with 20 vertices and 1-190 edges"
121
1
{21}
1 0 0 0 0 0 0 0 0 0 0 0 0 0 0 0 0 0 0 0 0 2 2 2 2 2 2 2 2 2 2 2 2 2 2 2 2 2 2 2 2 2 2 2 2 2 2 2 2 2 2 2 2 2 2 2 2 2 2 2 2 2 2 2 2 2 2 2 2 2 2 2 2 2 2 2 2 2 2 2 2 2 2 2 2 2 2 2 2 2 2 2 2 2 2 2 2 2 2 2 2 2 2 2 2 2 2 2 2 2 2 2 2 2 2 2 2 2 2 2 2
0 1 1 1 -1.0
0 1 2 2 -1.0
0 1 3 3 -1.0
0 1 4 4 -1.0
0 1 5 5 -1.0
0 1 6 6 -1.0
0 1 7 7 -1.0
0 1 8 8 -1.0
0 1 9 9 -1.0
0 1 10 10 -1.0
0 1 11 11 -1.0
0 1 12 12 -1.0
0 1 13 13 -1.0
0 1 14 14 -1.0
0 1 15 15 -1.0
0 1 16 16 -1.0
0 1 17 17 -1.0
0 1 18 18 -1.0
0 1 19 19 -1.0
0 1 20 20 -1.0
0 1 21 21 -1.0
1 1 1 1 1.0
2 1 1 2 -1.0
2 1 2 2 2.0
3 1 1 3 -1.0
3 1 3 3 2.0
4 1 1 4 -1.0
4 1 4 4 2.0
5 1 1 5 -1.0
5 1 5 5 2.0
6 1 1 6 -1.0
6 1 6 6 2.0
7 1 1 7 -1.0
7 1 7 7 2.0
8 1 1 8 -1.0
8 1 8 8 2.0
9 1 1 9 -1.0
9 1 9 9 2.0
10 1 1 10 -1.0
10 1 10 10 2.0
11 1 1 11 -1.0
11 1 11 11 2.0
12 1 1 12 -1.0
12 1 12 12 2.0
13 1 1 13 -1.0
13 1 13 13 2.0
14 1 1 14 -1.0
14 1 14 14 2.0
15 1 1 15 -1.0
15 1 15 15 2.0
16 1 1 16 -1.0
16 1 16 16 2.0
17 1 1 17 -1.0
17 1 17 17 2.0
18 1 1 18 -1.0
18 1 18 18 2.0
19 1 1 19 -1.0
19 1 19 19 2.0
20 1 1 20 -1.0
20 1 20 20 2.0
21 1 1 21 -1.0
21 1 21 21 2.0
22 1 1 2 1.0
22 1 1 5 1.0
22 1 2 5 -1.0
23 1 1 2 1.0
23 1 1 6 1.0
23 1 2 6 -1.0
24 1 1 2 1.0
24 1 1 8 1.0
24 1 2 8 -1.0
25 1 1 2 1.0
25 1 1 10 1.0
25 1 2 10 -1.0
26 1 1 2 1.0
26 1 1 12 1.0
26 1 2 12 -1.0
27 1 1 2 1.0
27 1 1 15 1.0
27 1 2 15 -1.0
28 1 1 3 1.0
28 1 1 4 1.0
28 1 3 4 -1.0
29 1 1 3 1.0
29 1 1 5 1.0
29 1 3 5 -1.0
30 1 1 3 1.0
30 1 1 10 1.0
30 1 3 10 -1.0
31 1 1 3 1.0
31 1 1 11 1.0
31 1 3 11 -1.0
32 1 1 3 1.0
32 1 1 15 1.0
32 1 3 15 -1.0
33 1 1 3 1.0
33 1 1 16 1.0
33 1 3 16 -1.0
34 1 1 3 1.0
34 1 1 17 1.0
34 1 3 17 -1.0
35 1 1 3 1.0
35 1 1 19 1.0
35 1 3 19 -1.0
36 1 1 3 1.0
36 1 1 21 1.0
36 1 3 21 -1.0
37 1 1 4 1.0
37 1 1 5 1.0
37 1 4 5 -1.0
38 1 1 4 1.0
38 1 1 8 1.0
38 1 4 8 -1.0
39 1 1 4 1.0
39 1 1 9 1.0
39 1 4 9 -1.0
40 1 1 4 1.0
40 1 1 11 1.0
40 1 4 11 -1.0
41 1 1 4 1.0
41 1 1 14 1.0
41 1 4 14 -1.0
42 1 1 4 1.0
42 1 1 15 1.0
42 1 4 15 -1.0
43 1 1 4 1.0
43 1 1 21 1.0
43 1 4 21 -1.0
44 1 1 5 1.0
44 1 1 9 1.0
44 1 5 9 -1.0
45 1 1 5 1.0
45 1 1 10 1.0
45 1 5 10 -1.0
46 1 1 5 1.0
46 1 1 12 1.0
46 1 5 12 -1.0
47 1 1 5 1.0
47 1 1 13 1.0
47 1 5 13 -1.0
48 1 1 5 1.0
48 1 1 16 1.0
48 1 5 16 -1.0
49 1 1 5 1.0
49 1 1 17 1.0
49 1 5 17 -1.0
50 1 1 5 1.0
50 1 1 18 1.0
50 1 5 18 -1.0
51 1 1 5 1.0
51 1 1 21 1.0
51 1 5 21 -1.0
52 1 1 6 1.0
52 1 1 7 1.0
52 1 6 7 -1.0
53 1 1 6 1.0
53 1 1 8 1.0
53 1 6 8 -1.0
54 1 1 6 1.0
54 1 1 11 1.0
54 1 6 11 -1.0
55 1 1 6 1.0
55 1 1 13 1.0
55 1 6 13 -1.0
56 1 1 6 1.0
56 1 1 15 1.0
56 1 6 15 -1.0
57 1 1 6 1.0
57 1 1 17 1.0
57 1 6 17 -1.0
58 1 1 6 1.0
58 1 1 19 1.0
58 1 6 19 -1.0
59 1 1 6 1.0
59 1 1 20 1.0
59 1 6 20 -1.0
60 1 1 7 1.0
60 1 1 9 1.0
60 1 7 9 -1.0
61 1 1 7 1.0
61 1 1 10 1.0
61 1 7 10 -1.0
62 1 1 7 1.0
62 1 1 11 1.0
62 1 7 11 -1.0
63 1 1 7 1.0
63 1 1 13 1.0
63 1 7 13 -1.0
64 1 1 7 1.0
64 1 1 15 1.0
64 1 7 15 -1.0
65 1 1 7 1.0
65 1 1 16 1.0
65 1 7 16 -1.0
66 1 1 7 1.0
66 1 1 17 1.0
66 1 7 17 -1.0
67 1 1 7 1.0
67 1 1 19 1.0
67 1 7 19 -1.0
68 1 1 7 1.0
68 1 1 21 1.0
68 1 7 21 -1.0
69 1 1 8 1.0
69 1 1 9 1.0
69 1 8 9 -1.0
70 1 1 8 1.0
70 1 1 10 1.0
70 1 8 10 -1.0
71 1 1 8 1.0
71 1 1 11 1.0
71 1 8 11 -1.0
72 1 1 8 1.0
72 1 1 12 1.0
72 1 8 12 -1.0
73 1 1 8 1.0
73 1 1 13 1.0
73 1 8 13 -1.0
74 1 1 8 1.0
74 1 1 14 1.0
74 1 8 14 -1.0
75 1 1 8 1.0
75 1 1 15 1.0
75 1 8 15 -1.0
76 1 1 8 1.0
76 1 1 16 1.0
76 1 8 16 -1.0
77 1 1 8 1.0
77 1 1 19 1.0
77 1 8 19 -1.0
78 1 1 8 1.0
78 1 1 20 1.0
78 1 8 20 -1.0
79 1 1 9 1.0
79 1 1 10 1.0
79 1 9 10 -1.0
80 1 1 9 1.0
80 1 1 11 1.0
80 1 9 11 -1.0
81 1 1 9 1.0
81 1 1 13 1.0
81 1 9 13 -1.0
82 1 1 9 1.0
82 1 1 14 1.0
82 1 9 14 -1.0
83 1 1 9 1.0
83 1 1 16 1.0
83 1 9 16 -1.0
84 1 1 9 1.0
84 1 1 18 1.0
84 1 9 18 -1.0
85 1 1 9 1.0
85 1 1 19 1.0
85 1 9 19 -1.0
86 1 1 9 1.0
86 1 1 20 1.0
86 1 9 20 -1.0
87 1 1 10 1.0
87 1 1 11 1.0
87 1 10 11 -1.0
88 1 1 10 1.0
88 1 1 12 1.0
88 1 10 12 -1.0
89 1 1 10 1.0
89 1 1 13 1.0
89 1 10 13 -1.0
90 1 1 10 1.0
90 1 1 14 1.0
90 1 10 14 -1.0
91 1 1 10 1.0
91 1 1 16 1.0
91 1 10 16 -1.0
92 1 1 10 1.0
92 1 1 17 1.0
92 1 10 17 -1.0
93 1 1 10 1.0
93 1 1 19 1.0
93 1 10 19 -1.0
94 1 1 10 1.0
94 1 1 20 1.0
94 1 10 20 -1.0
95 1 1 11 1.0
95 1 1 12 1.0
95 1 11 12 -1.0
96 1 1 11 1.0
96 1 1 13 1.0
96 1 11 13 -1.0
97 1 1 11 1.0
97 1 1 17 1.0
97 1 11 17 -1.0
98 1 1 11 1.0
98 1 1 18 1.0
98 1 11 18 -1.0
99 1 1 11 1.0
99 1 1 19 1.0
99 1 11 19 -1.0
100 1 1 11 1.0
100 1 1 20 1.0
100 1 11 20 -1.0
101 1 1 12 1.0
101 1 1 17 1.0
101 1 12 17 -1.0
102 1 1 12 1.0
102 1 1 18 1.0
102 1 12 18 -1.0
103 1 1 12 1.0
103 1 1 20 1.0
103 1 12 20 -1.0
104 1 1 13 1.0
104 1 1 16 1.0
104 1 13 16 -1.0
105 1 1 13 1.0
105 1 1 17 1.0
105 1 13 17 -1.0
106 1 1 13 1.0
106 1 1 18 1.0
106 1 13 18 -1.0
107 1 1 13 1.0
107 1 1 19 1.0
107 1 13 19 -1.0
108 1 1 13 1.0
108 1 1 21 1.0
108 1 13 21 -1.0
109 1 1 14 1.0
109 1 1 17 1.0
109 1 14 17 -1.0
110 1 1 14 1.0
110 1 1 18 1.0
110 1 14 18 -1.0
111 1 1 14 1.0
111 1 1 19 1.0
111 1 14 19 -1.0
112 1 1 15 1.0
112 1 1 16 1.0
112 1 15 16 -1.0
113 1 1 15 1.0
113 1 1 17 1.0
113 1 15 17 -1.0
114 1 1 15 1.0
114 1 1 20 1.0
114 1 15 20 -1.0
115 1 1 15 1.0
115 1 1 21 1.0
115 1 15 21 -1.0
116 1 1 16 1.0
116 1 1 17 1.0
116 1 16 17 -1.0
117 1 1 16 1.0
117 1 1 19 1.0
117 1 16 19 -1.0
118 1 1 17 1.0
118 1 1 18 1.0
118 1 17 18 -1.0
119 1 1 17 1.0
119 1 1 20 1.0
119 1 17 20 -1.0
120 1 1 18 1.0
120 1 1 19 1.0
120 1 18 19 -1.0
121 1 1 18 1.0
121 1 1 21 1.0
121 1 18 21 -1.0
