Prototype/modified-results/vertexcover2-2/vertexcover2019.dat-s.log
SDPA (Version 7.3.6) start at [Thu Jul 15 21:27:33 2021]
param is ./param.sdpa
data  is G:\Research\PhysarumSDPSolver\SDPA\testSet\vertexcover2\vertexcover2019.dat-s : sparse
out   is G:\Research\PhysarumSDPSolver\SDPA\testSet\vertexcover2\vertexcover2019.dat-s.res
NumThreads  is set as 1
Schur computation : DENSE 
   mu      thetaP  thetaD  objP      objD      alphaP  alphaD  beta 
 0 1.0e+004 1.0e+000 1.0e+000 -0.00e+000 -2.10e+003 1.0e+000 8.8e-001 2.00e-001
 1 1.8e+003 0.0e+000 1.2e-001 +1.44e+003 -2.83e+002 8.2e-001 8.2e-001 2.00e-001
 2 4.6e+002 3.3e-016 2.2e-002 +1.74e+003 -5.93e+001 1.2e+000 7.0e-001 2.00e-001
 3 1.9e+002 4.3e-016 6.6e-003 +1.24e+003 -2.69e+001 7.4e-001 6.0e-001 2.00e-001
 4 9.3e+001 2.9e-016 2.6e-003 +8.19e+002 -1.97e+001 5.4e-001 5.5e-001 2.00e-001
 5 5.0e+001 4.3e-016 1.2e-003 +5.18e+002 -1.78e+001 4.3e-001 6.4e-001 2.00e-001
 6 2.6e+001 5.7e-016 4.2e-004 +3.31e+002 -1.73e+001 4.0e-001 8.3e-001 2.00e-001
 7 1.3e+001 5.7e-016 7.3e-005 +2.10e+002 -1.74e+001 6.5e-001 1.0e+000 2.00e-001
 8 5.3e+000 5.7e-016 8.1e-016 +9.36e+001 -1.77e+001 9.6e-001 2.0e+001 1.00e-001
 9 7.0e-001 7.9e-016 1.4e-013 -2.35e+000 -1.70e+001 9.0e-001 2.2e+000 1.00e-001
10 1.2e-001 7.0e-016 1.6e-013 -1.41e+001 -1.67e+001 8.3e-001 1.1e+000 1.00e-001
11 2.7e-002 7.3e-016 1.1e-014 -1.57e+001 -1.62e+001 9.1e-001 8.6e-001 1.00e-001
12 5.3e-003 7.2e-016 3.4e-015 -1.59e+001 -1.61e+001 9.1e-001 9.5e-001 1.00e-001
13 8.4e-004 7.2e-016 1.5e-015 -1.60e+001 -1.60e+001 8.9e-001 9.1e-001 1.00e-001
14 1.6e-004 7.1e-016 2.4e-015 -1.60e+001 -1.60e+001 8.8e-001 8.9e-001 1.00e-001
15 3.2e-005 7.1e-016 8.5e-015 -1.60e+001 -1.60e+001 8.7e-001 8.7e-001 1.00e-001
16 7.0e-006 7.2e-016 2.9e-014 -1.60e+001 -1.60e+001 8.6e-001 8.6e-001 1.00e-001
17 1.6e-006 7.2e-016 1.0e-013 -1.60e+001 -1.60e+001 8.6e-001 8.6e-001 1.00e-001
18 3.6e-007 7.1e-016 4.7e-013 -1.60e+001 -1.60e+001 8.5e-001 8.6e-001 1.00e-001
cholesky miss condition :: not positive definite :: info = 116 :: line 785 in sdpa_linear.cpp
There are some possibilities. :: line 786 in sdpa_linear.cpp
1. SDPA terminates due to inaccuracy of numerical error :: line 787 in sdpa_linear.cpp
2. The input problem may not have (any) interior-points :: line 788 in sdpa_linear.cpp
3. Input matrices are linearly dependent :: line 789 in sdpa_linear.cpp
Entering DMUMPS driver with JOB, N, NZ =  -2           0              0
19 8.4e-008 7.0e-016 2.5e-012 -1.60e+001 -1.60e+001 8.5e-001 8.6e-001 0.00e+000

phase.value  = pdFEAS    
   Iteration = 19
          mu = +8.4252052699542087e-008
relative gap = +1.1052299570280953e-007
        gap  = +1.7683679480740011e-006
     digits  = +6.9565473521343941e+000
objValPrimal = -1.5999999268083421e+001
objValDual   = -1.6000001036451369e+001
p.feas.error = +6.9277916736609768e-014
d.feas.error = +5.0832826836710865e-010
total time   = 0.108802
  main loop time = 0.106808
      total time = 0.108802
file  check time = 0.000000
file change time = 0.000000
file   read time = 0.001994
SDPA end at [Thu Jul 15 21:27:33 2021]
ALL TIME = 0.110854
