Prototype/modified-results/vertexcover2-2/vertexcover2019.dat-s.res
SDPA start at [Thu Jul 15 21:27:33 2021]
param  is ./param.sdpa 
data   is G:\Research\PhysarumSDPSolver\SDPA\testSet\vertexcover2\vertexcover2019.dat-s  : sparse
"Vertexcover tests with graphs with 20 vertices and 1-190 edges"
out    is G:\Research\PhysarumSDPSolver\SDPA\testSet\vertexcover2\vertexcover2019.dat-s.res
NumThreads  is set as 1
Schur computation : DENSE 
   mu      thetaP  thetaD  objP      objD      alphaP  alphaD  beta 
 0 1.0e+004 1.0e+000 1.0e+000 -0.00e+000 -2.10e+003 1.0e+000 8.8e-001 2.00e-001
 1 1.8e+003 0.0e+000 1.2e-001 +1.44e+003 -2.83e+002 8.2e-001 8.2e-001 2.00e-001
 2 4.6e+002 3.3e-016 2.2e-002 +1.74e+003 -5.93e+001 1.2e+000 7.0e-001 2.00e-001
 3 1.9e+002 4.3e-016 6.6e-003 +1.24e+003 -2.69e+001 7.4e-001 6.0e-001 2.00e-001
 4 9.3e+001 2.9e-016 2.6e-003 +8.19e+002 -1.97e+001 5.4e-001 5.5e-001 2.00e-001
 5 5.0e+001 4.3e-016 1.2e-003 +5.18e+002 -1.78e+001 4.3e-001 6.4e-001 2.00e-001
 6 2.6e+001 5.7e-016 4.2e-004 +3.31e+002 -1.73e+001 4.0e-001 8.3e-001 2.00e-001
 7 1.3e+001 5.7e-016 7.3e-005 +2.10e+002 -1.74e+001 6.5e-001 1.0e+000 2.00e-001
 8 5.3e+000 5.7e-016 8.1e-016 +9.36e+001 -1.77e+001 9.6e-001 2.0e+001 1.00e-001
 9 7.0e-001 7.9e-016 1.4e-013 -2.35e+000 -1.70e+001 9.0e-001 2.2e+000 1.00e-001
10 1.2e-001 7.0e-016 1.6e-013 -1.41e+001 -1.67e+001 8.3e-001 1.1e+000 1.00e-001
11 2.7e-002 7.3e-016 1.1e-014 -1.57e+001 -1.62e+001 9.1e-001 8.6e-001 1.00e-001
12 5.3e-003 7.2e-016 3.4e-015 -1.59e+001 -1.61e+001 9.1e-001 9.5e-001 1.00e-001
13 8.4e-004 7.2e-016 1.5e-015 -1.60e+001 -1.60e+001 8.9e-001 9.1e-001 1.00e-001
14 1.6e-004 7.1e-016 2.4e-015 -1.60e+001 -1.60e+001 8.8e-001 8.9e-001 1.00e-001
15 3.2e-005 7.1e-016 8.5e-015 -1.60e+001 -1.60e+001 8.7e-001 8.7e-001 1.00e-001
16 7.0e-006 7.2e-016 2.9e-014 -1.60e+001 -1.60e+001 8.6e-001 8.6e-001 1.00e-001
17 1.6e-006 7.2e-016 1.0e-013 -1.60e+001 -1.60e+001 8.6e-001 8.6e-001 1.00e-001
18 3.6e-007 7.1e-016 4.7e-013 -1.60e+001 -1.60e+001 8.5e-001 8.6e-001 1.00e-001
19 8.4e-008 7.0e-016 2.5e-012 -1.60e+001 -1.60e+001 8.5e-001 8.6e-001 0.00e+000

phase.value  = pdFEAS    
   Iteration = 19
          mu = +8.4252052699542087e-008
relative gap = +1.1052299570280953e-007
        gap  = +1.7683679480740011e-006
     digits  = +6.9565473521343941e+000
objValPrimal = -1.5999999268083421e+001
objValDual   = -1.6000001036451369e+001
p.feas.error = +6.9277916736609768e-014
d.feas.error = +5.0832826836710865e-010
total time   = 0.108802
** Paramters **
maxIteration = 100
epsilonStar  = +9.9999999999999995e-008
lambdaStar   = +1.0000000000000000e+002
omegaStar    = +2.0000000000000000e+000
lowerBound   = -1.0000000000000000e+005
upperBound   = +1.0000000000000000e+005
betaStar     = +1.0000000000000001e-001
betaBar      = +2.0000000000000001e-001
gammaStar    = +9.0000000000000002e-001
epsilonDash  = +9.9999999999999995e-008
xPrint       = %+8.3e 
XPrint       = %+8.3e 
YPrint       = %+8.3e 
infPrint     = %+10.16e 

                         Time(sec)  Ratio(% : MainLoop) 
 Predictor time  =       0.047971,  44.913302
 Corrector time  =       0.013963,  13.072991
 Make bMat time  =       0.012975,  12.147966
 Make bDia time  =       0.000000,  0.000000
 Make bF1  time  =       0.000000,  0.000000
 Make bF2  time  =       0.000000,  0.000000
 Make bF3  time  =       0.010980,  10.280129
 Make bPRE time  =       0.000000,  0.000000
 Make rMat time  =       0.000281,  0.263089
 Make gVec Mul   =       0.000000,  0.000000
 Make gVec time  =       0.000431,  0.403528
 Cholesky bMat   =       0.021317,  19.958243
 Ste Pre time    =       0.000000,  0.000000
 Ste Cor time    =       0.037892,  35.476743
 solve           =       0.000000,  0.000000
 sumDz           =       0.003989,  3.734739
 makedX          =       0.002992,  2.801288
 symmetriseDx    =       0.020946,  19.610891
 makedXdZ        =       0.027927,  26.146918
 xMatTime        =       0.000998,  0.934387
 zMatTime        =       0.002992,  2.801288
 invzMatTime     =       0.000000,  0.000000
 xMatzMatTime    =       0.000000,  0.000000
 EigxMatTime     =       0.018946,  17.738372
 EigzMatTime     =       0.018946,  17.738372
 EigxMatzMatTime =       0.000000,  0.000000
 updateRes       =       0.000998,  0.934387
 EigTime         =       0.037892,  35.476743
 sub_total_bMat  =       0.093833,  87.852034
 Main Loop       =       0.106808,  100.000000
 File Check      =       0.000000,  0.000000
 File Change     =       0.000000,  0.000000
 File Read       =       0.001994,  1.866901
 Total           =       0.108802,  101.866901

xVec = 
{+6.973e+001,+5.216e-008,+7.375e-007,-4.559e-007,+6.960e-004,-4.402e-007,+3.288e-006,+4.380e-001,+5.719e-001,+9.335e-001,-7.892e-009,-8.948e-007,-5.520e-006,-2.652e-007,+6.436e-004,-1.134e-007,+4.324e-001,+8.246e-008,+5.710e-001,+1.993e-007,-5.078e-007,-4.235e-001,-5.765e-001,-7.437e-001,-3.996e-001,-4.235e-001,-5.765e-001,-1.000e+000,-5.770e-001,+5.693e-006,-4.124e-007,-4.237e-001,-7.555e-007,+7.161e-006,+1.964e-005,-1.000e+000,-5.772e-001,+7.595e-005,-1.181e-005,-4.011e-007,-7.698e-007,-4.235e-001,-1.000e+000,-1.826e-004,-4.002e-001,-4.235e-001,-6.124e-004,-4.067e-005,-1.204e-001,+2.540e-006,-5.772e-001,-3.885e-007,-8.817e-001,-4.235e-001,-6.706e-007,-5.765e-001,-2.417e-001,-2.150e-006,-4.235e-001,-7.933e-001,-9.852e-001,-1.849e-007,-1.000e+000,-6.137e-004,-1.000e+000,-3.591e-001,-8.011e-001,-5.656e-007,-2.217e-001,-5.427e-001,-6.944e-001,-5.564e-001,+3.691e-004,+2.117e-005,-7.439e-001,+8.687e-005,-2.221e-001,-6.944e-001,-7.948e-001,-1.103e-007,-7.933e-001,-7.786e-001,-7.933e-001,-7.786e-001,-1.548e+000,+2.287e-006,-5.487e-001,-9.483e-001,-9.852e-001,+1.081e-006,-9.852e-001,-7.934e-001,-8.006e-001,-5.487e-001,-5.765e-001,-3.265e-007,-7.177e-001,-2.015e-007,+1.056e-006,-1.000e+000,-4.760e-001,-3.864e-007,-5.765e-001,-1.000e+000,-3.592e-001,-7.610e-007,-8.011e-001,-1.211e-006,-3.556e-001,-1.000e+000,-7.699e-001,-5.746e-004,+1.200e-001,-2.992e-006,-4.235e-001,-3.591e-001,-8.011e-001,-3.556e-001,-7.177e-001,-7.699e-001,-5.332e-007}
xMat = 
{
{ {+7.073e+001,-3.143e+000,-3.001e+000,-3.001e+000,-3.100e+000,-3.124e+000,-4.939e+000,-5.738e+000,-7.074e+000,-9.666e+000,-3.961e+000,-3.981e+000,-4.939e+000,-2.904e+000,-3.050e+000,-4.939e+000,-5.168e+000,-2.904e+000,-7.085e+000,-3.961e+000,-3.001e+000 },
  {-3.143e+000,+1.000e+000,+0.000e+000,+0.000e+000,+4.235e-001,+5.765e-001,+0.000e+000,+7.437e-001,+0.000e+000,+3.996e-001,+0.000e+000,+4.235e-001,+0.000e+000,+0.000e+000,+5.765e-001,+0.000e+000,+0.000e+000,+0.000e+000,+0.000e+000,+0.000e+000,+0.000e+000 },
  {-3.001e+000,+0.000e+000,+1.000e+000,+1.000e+000,+5.770e-001,+0.000e+000,+0.000e+000,+0.000e+000,+0.000e+000,-5.693e-006,+4.124e-007,+0.000e+000,+0.000e+000,+0.000e+000,+4.237e-001,+7.555e-007,-7.161e-006,+0.000e+000,-1.964e-005,+0.000e+000,+1.000e+000 },
  {-3.001e+000,+0.000e+000,+1.000e+000,+1.000e+000,+5.772e-001,+0.000e+000,+0.000e+000,-7.595e-005,+1.181e-005,+0.000e+000,+4.011e-007,+0.000e+000,+0.000e+000,+7.698e-007,+4.235e-001,+0.000e+000,+0.000e+000,+0.000e+000,+0.000e+000,+0.000e+000,+1.000e+000 },
  {-3.100e+000,+4.235e-001,+5.770e-001,+5.772e-001,+1.001e+000,+0.000e+000,+0.000e+000,+0.000e+000,+1.826e-004,+4.002e-001,+0.000e+000,+4.235e-001,+6.124e-004,+0.000e+000,+0.000e+000,+4.067e-005,+1.204e-001,-2.540e-006,+0.000e+000,+0.000e+000,+5.772e-001 },
  {-3.124e+000,+5.765e-001,+0.000e+000,+0.000e+000,+0.000e+000,+1.000e+000,+3.885e-007,+8.817e-001,+0.000e+000,+0.000e+000,+4.235e-001,+0.000e+000,+6.706e-007,+0.000e+000,+5.765e-001,+0.000e+000,+2.417e-001,+0.000e+000,+2.150e-006,+4.235e-001,+0.000e+000 },
  {-4.939e+000,+0.000e+000,+0.000e+000,+0.000e+000,+0.000e+000,+3.885e-007,+1.000e+000,+0.000e+000,+7.933e-001,+9.852e-001,+1.849e-007,+0.000e+000,+1.000e+000,+0.000e+000,+6.137e-004,+1.000e+000,+3.591e-001,+0.000e+000,+8.011e-001,+0.000e+000,+5.656e-007 },
  {-5.738e+000,+7.437e-001,+0.000e+000,-7.595e-005,+0.000e+000,+8.817e-001,+0.000e+000,+1.876e+000,+2.217e-001,+5.427e-001,+6.944e-001,+5.564e-001,-3.691e-004,-2.117e-005,+7.439e-001,-8.687e-005,+0.000e+000,+0.000e+000,+2.221e-001,+6.944e-001,+0.000e+000 },
  {-7.074e+000,+0.000e+000,+0.000e+000,+1.181e-005,+1.826e-004,+0.000e+000,+7.933e-001,+2.217e-001,+2.144e+000,+7.948e-001,+1.103e-007,+0.000e+000,+7.933e-001,+7.786e-001,+0.000e+000,+7.933e-001,+0.000e+000,+7.786e-001,+1.548e+000,-2.287e-006,+0.000e+000 },
  {-9.666e+000,+3.996e-001,-5.693e-006,+0.000e+000,+4.002e-001,+0.000e+000,+9.852e-001,+5.427e-001,+7.948e-001,+2.867e+000,+5.487e-001,+9.483e-001,+9.852e-001,-1.081e-006,+0.000e+000,+9.852e-001,+7.934e-001,+0.000e+000,+8.006e-001,+5.487e-001,+0.000e+000 },
  {-3.961e+000,+0.000e+000,+4.124e-007,+4.011e-007,+0.000e+000,+4.235e-001,+1.849e-007,+6.944e-001,+1.103e-007,+5.487e-001,+1.000e+000,+5.765e-001,+3.265e-007,+0.000e+000,+0.000e+000,+0.000e+000,+7.177e-001,+2.015e-007,-1.056e-006,+1.000e+000,+0.000e+000 },
  {-3.981e+000,+4.235e-001,+0.000e+000,+0.000e+000,+4.235e-001,+0.000e+000,+0.000e+000,+5.564e-001,+0.000e+000,+9.483e-001,+5.765e-001,+1.000e+000,+0.000e+000,+0.000e+000,+0.000e+000,+0.000e+000,+4.760e-001,+3.864e-007,+0.000e+000,+5.765e-001,+0.000e+000 },
  {-4.939e+000,+0.000e+000,+0.000e+000,+0.000e+000,+6.124e-004,+6.706e-007,+1.000e+000,-3.691e-004,+7.933e-001,+9.852e-001,+3.265e-007,+0.000e+000,+1.000e+000,+0.000e+000,+0.000e+000,+1.000e+000,+3.592e-001,+7.610e-007,+8.011e-001,+0.000e+000,+1.211e-006 },
  {-2.904e+000,+0.000e+000,+0.000e+000,+7.698e-007,+0.000e+000,+0.000e+000,+0.000e+000,-2.117e-005,+7.786e-001,-1.081e-006,+0.000e+000,+0.000e+000,+0.000e+000,+1.000e+000,+0.000e+000,+0.000e+000,+3.556e-001,+1.000e+000,+7.699e-001,+0.000e+000,+0.000e+000 },
  {-3.050e+000,+5.765e-001,+4.237e-001,+4.235e-001,+0.000e+000,+5.765e-001,+6.137e-004,+7.439e-001,+0.000e+000,+0.000e+000,+0.000e+000,+0.000e+000,+0.000e+000,+0.000e+000,+1.001e+000,+5.746e-004,-1.200e-001,+0.000e+000,+0.000e+000,+2.992e-006,+4.235e-001 },
  {-4.939e+000,+0.000e+000,+7.555e-007,+0.000e+000,+4.067e-005,+0.000e+000,+1.000e+000,-8.687e-005,+7.933e-001,+9.852e-001,+0.000e+000,+0.000e+000,+1.000e+000,+0.000e+000,+5.746e-004,+1.000e+000,+3.591e-001,+0.000e+000,+8.011e-001,+0.000e+000,+0.000e+000 },
  {-5.168e+000,+0.000e+000,-7.161e-006,+0.000e+000,+1.204e-001,+2.417e-001,+3.591e-001,+0.000e+000,+0.000e+000,+7.934e-001,+7.177e-001,+4.760e-001,+3.592e-001,+3.556e-001,-1.200e-001,+3.591e-001,+1.865e+000,+3.556e-001,+0.000e+000,+7.177e-001,+0.000e+000 },
  {-2.904e+000,+0.000e+000,+0.000e+000,+0.000e+000,-2.540e-006,+0.000e+000,+0.000e+000,+0.000e+000,+7.786e-001,+0.000e+000,+2.015e-007,+3.864e-007,+7.610e-007,+1.000e+000,+0.000e+000,+0.000e+000,+3.556e-001,+1.000e+000,+7.699e-001,+0.000e+000,+5.332e-007 },
  {-7.085e+000,+0.000e+000,-1.964e-005,+0.000e+000,+0.000e+000,+2.150e-006,+8.011e-001,+2.221e-001,+1.548e+000,+8.006e-001,-1.056e-006,+0.000e+000,+8.011e-001,+7.699e-001,+0.000e+000,+8.011e-001,+0.000e+000,+7.699e-001,+2.142e+000,+0.000e+000,+0.000e+000 },
  {-3.961e+000,+0.000e+000,+0.000e+000,+0.000e+000,+0.000e+000,+4.235e-001,+0.000e+000,+6.944e-001,-2.287e-006,+5.487e-001,+1.000e+000,+5.765e-001,+0.000e+000,+0.000e+000,+2.992e-006,+0.000e+000,+7.177e-001,+0.000e+000,+0.000e+000,+1.000e+000,+0.000e+000 },
  {-3.001e+000,+0.000e+000,+1.000e+000,+1.000e+000,+5.772e-001,+0.000e+000,+5.656e-007,+0.000e+000,+0.000e+000,+0.000e+000,+0.000e+000,+0.000e+000,+1.211e-006,+0.000e+000,+4.235e-001,+0.000e+000,+0.000e+000,+5.332e-007,+0.000e+000,+0.000e+000,+1.000e+000 }   }
}
yMat = 
{
{ {+1.000e+000,+1.423e-001,+6.005e-001,+7.471e-001,+9.998e-001,+8.579e-001,+6.264e-001,+1.000e+000,+1.000e+000,+1.000e+000,+8.738e-001,+8.579e-001,+8.534e-001,+3.765e-001,+9.998e-001,+5.202e-001,+1.000e+000,+6.235e-001,+1.000e+000,+2.683e-001,+6.525e-001 },
  {+1.423e-001,+1.423e-001,+1.248e-001,+1.312e-001,+1.421e-001,+1.624e-004,+1.422e-001,+1.423e-001,+1.423e-001,+1.423e-001,+1.421e-001,+1.625e-004,+1.421e-001,-2.139e-005,+1.421e-001,+1.629e-004,+1.423e-001,+1.423e-001,+1.423e-001,+1.423e-001,+2.868e-002 },
  {+6.005e-001,+1.248e-001,+6.005e-001,+3.476e-001,+6.003e-001,+4.758e-001,+4.849e-001,+6.005e-001,+6.005e-001,+6.005e-001,+4.743e-001,+4.758e-001,+5.954e-001,+2.529e-001,+6.003e-001,+1.207e-001,+6.005e-001,+3.477e-001,+6.005e-001,+2.508e-001,+2.531e-001 },
  {+7.471e-001,+1.312e-001,+3.476e-001,+7.471e-001,+7.469e-001,+6.161e-001,+4.890e-001,+7.471e-001,+7.471e-001,+7.471e-001,+6.209e-001,+6.161e-001,+6.056e-001,+1.236e-001,+7.469e-001,+3.997e-001,+7.471e-001,+6.235e-001,+7.471e-001,+2.572e-001,+3.997e-001 },
  {+9.998e-001,+1.421e-001,+6.003e-001,+7.469e-001,+9.998e-001,+8.577e-001,+6.264e-001,+9.998e-001,+9.998e-001,+9.998e-001,+8.738e-001,+8.577e-001,+8.532e-001,+3.765e-001,+9.998e-001,+5.200e-001,+9.998e-001,+6.233e-001,+9.998e-001,+2.681e-001,+6.524e-001 },
  {+8.579e-001,+1.624e-004,+4.758e-001,+6.161e-001,+8.577e-001,+8.579e-001,+4.843e-001,+8.579e-001,+8.579e-001,+8.579e-001,+7.317e-001,+8.579e-001,+7.113e-001,+3.765e-001,+8.577e-001,+5.202e-001,+8.579e-001,+4.815e-001,+8.579e-001,+1.262e-001,+6.240e-001 },
  {+6.264e-001,+1.422e-001,+4.849e-001,+4.890e-001,+6.264e-001,+4.843e-001,+6.264e-001,+6.264e-001,+6.264e-001,+6.264e-001,+5.002e-001,+4.842e-001,+4.798e-001,+1.273e-001,+6.262e-001,+1.466e-001,+6.264e-001,+4.991e-001,+6.264e-001,+2.683e-001,+2.790e-001 },
  {+1.000e+000,+1.423e-001,+6.005e-001,+7.471e-001,+9.998e-001,+8.579e-001,+6.264e-001,+1.000e+000,+1.000e+000,+1.000e+000,+8.738e-001,+8.579e-001,+8.534e-001,+3.765e-001,+9.998e-001,+5.202e-001,+1.000e+000,+6.235e-001,+1.000e+000,+2.683e-001,+6.525e-001 },
  {+1.000e+000,+1.423e-001,+6.005e-001,+7.471e-001,+9.998e-001,+8.579e-001,+6.264e-001,+1.000e+000,+1.000e+000,+1.000e+000,+8.738e-001,+8.579e-001,+8.534e-001,+3.765e-001,+9.998e-001,+5.202e-001,+1.000e+000,+6.235e-001,+1.000e+000,+2.683e-001,+6.525e-001 },
  {+1.000e+000,+1.423e-001,+6.005e-001,+7.471e-001,+9.998e-001,+8.579e-001,+6.264e-001,+1.000e+000,+1.000e+000,+1.000e+000,+8.738e-001,+8.579e-001,+8.534e-001,+3.765e-001,+9.998e-001,+5.202e-001,+1.000e+000,+6.235e-001,+1.000e+000,+2.683e-001,+6.525e-001 },
  {+8.738e-001,+1.421e-001,+4.743e-001,+6.209e-001,+8.738e-001,+7.317e-001,+5.002e-001,+8.738e-001,+8.738e-001,+8.738e-001,+8.738e-001,+7.317e-001,+7.272e-001,+3.765e-001,+8.738e-001,+5.202e-001,+8.738e-001,+4.973e-001,+8.738e-001,+1.421e-001,+6.524e-001 },
  {+8.579e-001,+1.625e-004,+4.758e-001,+6.161e-001,+8.577e-001,+8.579e-001,+4.842e-001,+8.579e-001,+8.579e-001,+8.579e-001,+7.317e-001,+8.579e-001,+7.114e-001,+3.765e-001,+8.577e-001,+5.202e-001,+8.579e-001,+4.814e-001,+8.579e-001,+1.262e-001,+6.240e-001 },
  {+8.534e-001,+1.421e-001,+5.954e-001,+6.056e-001,+8.532e-001,+7.113e-001,+4.798e-001,+8.534e-001,+8.534e-001,+8.534e-001,+7.272e-001,+7.114e-001,+8.534e-001,+3.765e-001,+8.534e-001,+3.736e-001,+8.534e-001,+4.769e-001,+8.534e-001,+2.682e-001,+5.059e-001 },
  {+3.765e-001,-2.139e-005,+2.529e-001,+1.236e-001,+3.765e-001,+3.765e-001,+1.273e-001,+3.765e-001,+3.765e-001,+3.765e-001,+3.765e-001,+3.765e-001,+3.765e-001,+3.765e-001,+3.766e-001,+2.492e-001,+3.765e-001,+3.685e-007,+3.765e-001,+1.958e-005,+3.765e-001 },
  {+9.998e-001,+1.421e-001,+6.003e-001,+7.469e-001,+9.998e-001,+8.577e-001,+6.262e-001,+9.998e-001,+9.998e-001,+9.998e-001,+8.738e-001,+8.577e-001,+8.534e-001,+3.766e-001,+9.998e-001,+5.200e-001,+9.998e-001,+6.233e-001,+9.998e-001,+2.681e-001,+6.524e-001 },
  {+5.202e-001,+1.629e-004,+1.207e-001,+3.997e-001,+5.200e-001,+5.202e-001,+1.466e-001,+5.202e-001,+5.202e-001,+5.202e-001,+5.202e-001,+5.202e-001,+3.736e-001,+2.492e-001,+5.200e-001,+5.202e-001,+5.202e-001,+2.710e-001,+5.202e-001,+1.383e-006,+5.202e-001 },
  {+1.000e+000,+1.423e-001,+6.005e-001,+7.471e-001,+9.998e-001,+8.579e-001,+6.264e-001,+1.000e+000,+1.000e+000,+1.000e+000,+8.738e-001,+8.579e-001,+8.534e-001,+3.765e-001,+9.998e-001,+5.202e-001,+1.000e+000,+6.235e-001,+1.000e+000,+2.683e-001,+6.525e-001 },
  {+6.235e-001,+1.423e-001,+3.477e-001,+6.235e-001,+6.233e-001,+4.815e-001,+4.991e-001,+6.235e-001,+6.235e-001,+6.235e-001,+4.973e-001,+4.814e-001,+4.769e-001,+3.685e-007,+6.233e-001,+2.710e-001,+6.235e-001,+6.235e-001,+6.235e-001,+2.683e-001,+2.761e-001 },
  {+1.000e+000,+1.423e-001,+6.005e-001,+7.471e-001,+9.998e-001,+8.579e-001,+6.264e-001,+1.000e+000,+1.000e+000,+1.000e+000,+8.738e-001,+8.579e-001,+8.534e-001,+3.765e-001,+9.998e-001,+5.202e-001,+1.000e+000,+6.235e-001,+1.000e+000,+2.683e-001,+6.525e-001 },
  {+2.683e-001,+1.423e-001,+2.508e-001,+2.572e-001,+2.681e-001,+1.262e-001,+2.683e-001,+2.683e-001,+2.683e-001,+2.683e-001,+1.421e-001,+1.262e-001,+2.682e-001,+1.958e-005,+2.681e-001,+1.383e-006,+2.683e-001,+2.683e-001,+2.683e-001,+2.683e-001,+2.869e-002 },
  {+6.525e-001,+2.868e-002,+2.531e-001,+3.997e-001,+6.524e-001,+6.240e-001,+2.790e-001,+6.525e-001,+6.525e-001,+6.525e-001,+6.524e-001,+6.240e-001,+5.059e-001,+3.765e-001,+6.524e-001,+5.202e-001,+6.525e-001,+2.761e-001,+6.525e-001,+2.869e-002,+6.525e-001 }   }
}
    main loop time = 0.106808
        total time = 0.108802
  file  check time = 0.000000
  file change time = 0.000000
  file   read time = 0.001994
SDPA end at [Thu Jul 15 21:27:33 2021]
ALL TIME = 0.110854
